(set-info :smt-lib-version 2.6)
(set-logic QF_UFBV)
(set-info :source |
Generated by: Certora
Generated on: 2024-01-16
Generator: The Certora Prover
Application: Web3 security
|)
(set-info :license "https://creativecommons.org/licenses/by/4.0/")
(set-info :category "industrial")
(set-info :status unknown)
(declare-fun x353 () (_ BitVec 256))
(declare-fun x252 () (_ BitVec 256))
(declare-fun x76 () Bool)
(declare-fun x167 () (_ BitVec 256))
(declare-fun x249 () Bool)
(declare-fun x335 () (_ BitVec 256))
(declare-fun x379 () (_ BitVec 256))
(declare-fun x164 () Bool)
(declare-fun x324 () (_ BitVec 256))
(declare-fun x395 () Bool)
(declare-fun x36 () Bool)
(declare-fun x156 () (_ BitVec 256))
(declare-fun x172 () (_ BitVec 256))
(declare-fun x326 () (_ BitVec 256))
(declare-fun x296 () (_ BitVec 256))
(declare-fun x118 () (_ BitVec 256))
(declare-fun x191 () (_ BitVec 256))
(declare-fun x406 ((_ BitVec 256)) (_ BitVec 256))
(declare-fun x231 () Bool)
(declare-fun x213 () (_ BitVec 256))
(declare-fun x202 () (_ BitVec 256))
(declare-fun x376 ((_ BitVec 256)) (_ BitVec 256))
(declare-fun x97 () (_ BitVec 256))
(declare-fun x89 () (_ BitVec 256))
(declare-fun x371 () (_ BitVec 256))
(declare-fun x171 () (_ BitVec 256))
(declare-fun x41 () (_ BitVec 256))
(declare-fun x3 () Bool)
(declare-fun x212 () (_ BitVec 256))
(declare-fun x70 () (_ BitVec 256))
(declare-fun x117 () (_ BitVec 256))
(declare-fun x148 () (_ BitVec 256))
(declare-fun x49 ((_ BitVec 256)) (_ BitVec 256))
(declare-fun x247 () (_ BitVec 256))
(declare-fun x13 () Bool)
(declare-fun x125 () Bool)
(declare-fun x265 () Bool)
(declare-fun x408 () (_ BitVec 256))
(declare-fun x260 () (_ BitVec 256))
(declare-fun x57 () (_ BitVec 256))
(declare-fun x215 () (_ BitVec 256))
(declare-fun x159 () (_ BitVec 256))
(declare-fun x226 () Bool)
(declare-fun x121 () (_ BitVec 256))
(declare-fun x409 () Bool)
(declare-fun x196 ((_ BitVec 256) (_ BitVec 256) (_ BitVec 256)) (_ BitVec 256))
(declare-fun x239 () (_ BitVec 256))
(declare-fun x242 () (_ BitVec 256))
(declare-fun x47 () (_ BitVec 256))
(declare-fun x288 () (_ BitVec 256))
(declare-fun x361 () (_ BitVec 256))
(declare-fun x173 () Bool)
(declare-fun x222 () (_ BitVec 256))
(declare-fun x259 () (_ BitVec 256))
(declare-fun x99 () (_ BitVec 256))
(declare-fun x158 () (_ BitVec 256))
(declare-fun x168 () Bool)
(declare-fun x134 () Bool)
(declare-fun x258 () (_ BitVec 256))
(declare-fun x325 () (_ BitVec 256))
(declare-fun x299 ((_ BitVec 256) (_ BitVec 256)) (_ BitVec 256))
(declare-fun x101 () Bool)
(declare-fun x105 ((_ BitVec 256) (_ BitVec 256)) (_ BitVec 256))
(declare-fun x60 () (_ BitVec 256))
(declare-fun x306 () Bool)
(declare-fun x40 ((_ BitVec 256)) (_ BitVec 256))
(declare-fun x290 () Bool)
(declare-fun x262 ((_ BitVec 256)) (_ BitVec 256))
(declare-fun x62 () (_ BitVec 256))
(declare-fun x347 () (_ BitVec 256))
(declare-fun x189 () (_ BitVec 256))
(declare-fun x396 () (_ BitVec 256))
(declare-fun x72 () (_ BitVec 256))
(declare-fun x195 () (_ BitVec 256))
(declare-fun x28 () (_ BitVec 256))
(declare-fun x207 () (_ BitVec 256))
(declare-fun x69 () Bool)
(declare-fun x169 () Bool)
(declare-fun x254 ((_ BitVec 256)) (_ BitVec 256))
(declare-fun x120 () (_ BitVec 256))
(declare-fun x225 () (_ BitVec 256))
(declare-fun x312 () (_ BitVec 256))
(declare-fun x221 () Bool)
(declare-fun x267 () (_ BitVec 256))
(declare-fun x314 () (_ BitVec 256))
(declare-fun x234 () (_ BitVec 256))
(declare-fun x384 () (_ BitVec 256))
(declare-fun x177 () (_ BitVec 256))
(declare-fun x186 ((_ BitVec 256) (_ BitVec 256)) (_ BitVec 256))
(declare-fun x373 () (_ BitVec 256))
(declare-fun x329 () Bool)
(declare-fun x205 () Bool)
(declare-fun x157 () (_ BitVec 256))
(declare-fun x34 () (_ BitVec 256))
(declare-fun x359 () (_ BitVec 256))
(declare-fun x64 () Bool)
(declare-fun x220 () Bool)
(declare-fun x175 ((_ BitVec 256)) Bool)
(declare-fun x39 () Bool)
(declare-fun x256 () (_ BitVec 256))
(declare-fun x333 ((_ BitVec 256)) (_ BitVec 256))
(declare-fun x112 () (_ BitVec 256))
(declare-fun x401 () (_ BitVec 256))
(declare-fun x10 () (_ BitVec 256))
(declare-fun x154 () Bool)
(declare-fun x142 () (_ BitVec 256))
(declare-fun x25 () Bool)
(declare-fun x280 () (_ BitVec 256))
(declare-fun x58 () Bool)
(declare-fun x323 () (_ BitVec 256))
(declare-fun x291 () (_ BitVec 256))
(declare-fun x16 () (_ BitVec 256))
(declare-fun x272 () Bool)
(declare-fun x370 () (_ BitVec 256))
(declare-fun x355 () Bool)
(declare-fun x248 () (_ BitVec 256))
(declare-fun x246 () (_ BitVec 256))
(declare-fun x388 () (_ BitVec 256))
(declare-fun x227 () Bool)
(declare-fun x102 () (_ BitVec 256))
(declare-fun x389 () Bool)
(declare-fun x232 () (_ BitVec 256))
(declare-fun x276 () (_ BitVec 256))
(declare-fun x46 () Bool)
(declare-fun x268 () (_ BitVec 256))
(declare-fun x250 () (_ BitVec 256))
(declare-fun x219 () (_ BitVec 256))
(declare-fun x381 () (_ BitVec 256))
(declare-fun x297 () (_ BitVec 256))
(declare-fun x56 () Bool)
(declare-fun x35 () Bool)
(declare-fun x318 () (_ BitVec 256))
(declare-fun x22 () (_ BitVec 256))
(declare-fun x241 () (_ BitVec 256))
(declare-fun x298 () (_ BitVec 256))
(declare-fun x270 () (_ BitVec 256))
(declare-fun x93 () Bool)
(declare-fun x135 () (_ BitVec 256))
(declare-fun x80 () (_ BitVec 256))
(declare-fun x51 () Bool)
(declare-fun x107 () (_ BitVec 256))
(declare-fun x233 () (_ BitVec 256))
(declare-fun x285 () (_ BitVec 256))
(declare-fun x203 () (_ BitVec 256))
(declare-fun x271 () (_ BitVec 256))
(declare-fun x27 () (_ BitVec 256))
(declare-fun x78 () (_ BitVec 256))
(declare-fun x116 () (_ BitVec 256))
(declare-fun x42 () (_ BitVec 256))
(declare-fun x166 ((_ BitVec 256) (_ BitVec 256)) (_ BitVec 256))
(declare-fun x79 () (_ BitVec 256))
(declare-fun x284 () (_ BitVec 256))
(declare-fun x192 () (_ BitVec 256))
(declare-fun x131 () Bool)
(declare-fun x33 () (_ BitVec 256))
(declare-fun x367 () Bool)
(declare-fun x155 () Bool)
(declare-fun x319 () Bool)
(declare-fun x375 () Bool)
(declare-fun x217 ((_ BitVec 256)) (_ BitVec 256))
(declare-fun x200 () (_ BitVec 256))
(declare-fun x7 () Bool)
(declare-fun x206 () Bool)
(declare-fun x180 () (_ BitVec 256))
(declare-fun x404 () Bool)
(declare-fun x360 () (_ BitVec 256))
(declare-fun x6 () (_ BitVec 256))
(declare-fun x385 () Bool)
(declare-fun x29 () (_ BitVec 256))
(declare-fun x336 () (_ BitVec 256))
(declare-fun x209 () (_ BitVec 256))
(declare-fun x218 () Bool)
(declare-fun x295 () (_ BitVec 256))
(declare-fun x86 () (_ BitVec 256))
(declare-fun x380 () Bool)
(declare-fun x9 () (_ BitVec 256))
(declare-fun x77 ((_ BitVec 256)) (_ BitVec 256))
(declare-fun x88 () (_ BitVec 256))
(declare-fun x59 () (_ BitVec 256))
(declare-fun x320 () (_ BitVec 256))
(declare-fun x129 () (_ BitVec 256))
(declare-fun x81 () (_ BitVec 256))
(declare-fun x63 () (_ BitVec 256))
(declare-fun x68 () (_ BitVec 256))
(declare-fun x2 () (_ BitVec 256))
(declare-fun x374 () Bool)
(declare-fun x317 () (_ BitVec 256))
(declare-fun x193 ((_ BitVec 256)) (_ BitVec 256))
(declare-fun x343 () (_ BitVec 256))
(declare-fun x307 () (_ BitVec 256))
(declare-fun x52 () (_ BitVec 256))
(declare-fun x321 () (_ BitVec 256))
(declare-fun x128 () (_ BitVec 256))
(declare-fun x292 () (_ BitVec 256))
(declare-fun x300 () (_ BitVec 256))
(declare-fun x17 () (_ BitVec 256))
(declare-fun x356 () Bool)
(declare-fun x261 () (_ BitVec 256))
(declare-fun x244 () (_ BitVec 256))
(declare-fun x14 () (_ BitVec 256))
(declare-fun x130 () (_ BitVec 256))
(declare-fun x199 () (_ BitVec 256))
(declare-fun x163 () Bool)
(declare-fun x352 () (_ BitVec 256))
(declare-fun x313 () (_ BitVec 256))
(declare-fun x269 () (_ BitVec 256))
(declare-fun x216 () Bool)
(declare-fun x71 ((_ BitVec 256)) (_ BitVec 256))
(declare-fun x230 () (_ BitVec 256))
(declare-fun x50 () Bool)
(declare-fun x229 () (_ BitVec 256))
(declare-fun x382 () (_ BitVec 256))
(declare-fun x237 () (_ BitVec 256))
(declare-fun x139 () (_ BitVec 256))
(declare-fun x188 () (_ BitVec 256))
(declare-fun x141 () (_ BitVec 256))
(declare-fun x66 () Bool)
(declare-fun x137 () (_ BitVec 256))
(declare-fun x214 () Bool)
(declare-fun x55 () Bool)
(declare-fun x165 () (_ BitVec 256))
(declare-fun x392 ((_ BitVec 256)) (_ BitVec 256))
(declare-fun x322 () (_ BitVec 256))
(declare-fun x204 () (_ BitVec 256))
(declare-fun x87 () (_ BitVec 256))
(declare-fun x23 () (_ BitVec 256))
(declare-fun x403 () (_ BitVec 256))
(declare-fun x208 () Bool)
(declare-fun x302 () (_ BitVec 256))
(declare-fun x98 ((_ BitVec 256)) (_ BitVec 256))
(declare-fun x95 () Bool)
(declare-fun x194 () (_ BitVec 256))
(declare-fun x32 () (_ BitVec 256))
(declare-fun x11 () (_ BitVec 256))
(declare-fun x178 () (_ BitVec 256))
(declare-fun x110 () (_ BitVec 256))
(declare-fun x238 () (_ BitVec 256))
(declare-fun x179 () (_ BitVec 256))
(declare-fun x100 () (_ BitVec 256))
(declare-fun x44 () (_ BitVec 256))
(declare-fun x103 () Bool)
(declare-fun x412 () (_ BitVec 256))
(declare-fun x245 () (_ BitVec 256))
(declare-fun x264 () (_ BitVec 256))
(declare-fun x275 () Bool)
(declare-fun x115 () (_ BitVec 256))
(declare-fun x94 () (_ BitVec 256))
(declare-fun x127 () Bool)
(declare-fun x124 () (_ BitVec 256))
(declare-fun x398 () (_ BitVec 256))
(declare-fun x19 ((_ BitVec 256)) (_ BitVec 256))
(declare-fun x1 ((_ BitVec 256)) (_ BitVec 256))
(declare-fun x18 () (_ BitVec 256))
(declare-fun x357 () Bool)
(declare-fun x114 ((_ BitVec 256)) (_ BitVec 256))
(declare-fun x331 () (_ BitVec 256))
(declare-fun x393 () (_ BitVec 256))
(declare-fun x383 () Bool)
(declare-fun x147 () (_ BitVec 256))
(declare-fun x151 () (_ BitVec 256))
(declare-fun x211 () (_ BitVec 256))
(declare-fun x310 () Bool)
(declare-fun x26 () (_ BitVec 256))
(declare-fun x54 () (_ BitVec 256))
(declare-fun x183 () Bool)
(declare-fun x315 () Bool)
(declare-fun x400 () (_ BitVec 256))
(declare-fun x190 () Bool)
(declare-fun x354 () (_ BitVec 256))
(declare-fun x20 () (_ BitVec 256))
(declare-fun x113 () Bool)
(declare-fun x150 () (_ BitVec 256))
(declare-fun x181 () (_ BitVec 256))
(declare-fun x136 () (_ BitVec 256))
(declare-fun x170 () (_ BitVec 256))
(declare-fun x394 () (_ BitVec 256))
(declare-fun x198 () (_ BitVec 256))
(declare-fun x48 ((_ BitVec 256)) (_ BitVec 256))
(declare-fun x387 () (_ BitVec 256))
(declare-fun x294 () (_ BitVec 256))
(declare-fun x369 () Bool)
(declare-fun x281 () (_ BitVec 256))
(declare-fun x184 () Bool)
(declare-fun x402 ((_ BitVec 256)) (_ BitVec 256))
(declare-fun x38 () (_ BitVec 256))
(declare-fun x346 () (_ BitVec 256))
(declare-fun x201 () Bool)
(declare-fun x84 () (_ BitVec 256))
(declare-fun x364 () (_ BitVec 256))
(declare-fun x251 () Bool)
(declare-fun x273 () Bool)
(declare-fun x289 () Bool)
(declare-fun x397 () Bool)
(declare-fun x293 () (_ BitVec 256))
(declare-fun x74 ((_ BitVec 256)) (_ BitVec 256))
(declare-fun x243 () (_ BitVec 256))
(declare-fun x12 ((_ BitVec 256)) (_ BitVec 256))
(declare-fun x43 () (_ BitVec 256))
(declare-fun x96 () (_ BitVec 256))
(declare-fun x85 () (_ BitVec 256))
(declare-fun x153 () (_ BitVec 256))
(declare-fun x122 () Bool)
(declare-fun x330 () (_ BitVec 256))
(declare-fun x339 () Bool)
(declare-fun x340 () (_ BitVec 256))
(declare-fun x83 () (_ BitVec 256))
(declare-fun x327 () (_ BitVec 256))
(declare-fun x119 () Bool)
(declare-fun x286 () Bool)
(declare-fun x390 () (_ BitVec 256))
(declare-fun x342 () (_ BitVec 256))
(declare-fun x282 () (_ BitVec 256))
(define-fun x341 ((x132 (_ BitVec 256)) (x301 (_ BitVec 256))) Bool (= x132 (bvudiv (bvmul x301 x132) x301)))
(define-fun x257 ((x132 (_ BitVec 256)) (x301 (_ BitVec 256))) Bool (= x132 (bvsdiv (bvmul x132 x301) x301)))
(define-fun x8 ((x132 (_ BitVec 256)) (x301 (_ BitVec 256))) Bool (= x132 (bvsdiv (bvmul x301 x132) x301)))
(define-fun x304 ((x161 (_ BitVec 256))) (_ BitVec 256) (_ bv0 256))
(define-fun x67 ((x161 (_ BitVec 256))) (_ BitVec 256) (_ bv0 256))
(define-fun x108 ((x161 (_ BitVec 256))) (_ BitVec 256) (_ bv0 256))
(define-fun x266 ((x161 (_ BitVec 256))) (_ BitVec 256) (_ bv0 256))
(define-fun x140 ((x161 (_ BitVec 256))) (_ BitVec 256) (_ bv0 256))
(define-fun x91 ((x161 (_ BitVec 256))) (_ BitVec 256) (_ bv0 256))
(define-fun x37 ((x161 (_ BitVec 256))) (_ BitVec 256) (_ bv0 256))
(define-fun x303 ((x161 (_ BitVec 256))) (_ BitVec 256) (_ bv0 256))
(define-fun x332 ((x161 (_ BitVec 256))) (_ BitVec 256) (_ bv0 256))
(define-fun x162 ((x161 (_ BitVec 256))) (_ BitVec 256) (_ bv0 256))
(define-fun x279 ((x161 (_ BitVec 256))) (_ BitVec 256) (_ bv0 256))
(define-fun x328 ((x161 (_ BitVec 256))) (_ BitVec 256) (_ bv0 256))
(define-fun x5 ((x161 (_ BitVec 256))) (_ BitVec 256) (_ bv0 256))
(define-fun x349 ((x161 (_ BitVec 256))) (_ BitVec 256) (_ bv0 256))
(define-fun x24 ((x161 (_ BitVec 256))) (_ BitVec 256) (_ bv0 256))
(define-fun x75 ((x161 (_ BitVec 256))) (_ BitVec 256) (_ bv0 256))
(define-fun x391 ((x161 (_ BitVec 256))) (_ BitVec 256) (_ bv0 256))
(define-fun x15 ((x161 (_ BitVec 256))) (_ BitVec 256) (_ bv0 256))
(define-fun x366 ((x161 (_ BitVec 256))) (_ BitVec 256) (_ bv0 256))
(define-fun x223 ((x161 (_ BitVec 256))) (_ BitVec 256) (_ bv0 256))
(define-fun x45 ((x161 (_ BitVec 256))) (_ BitVec 256) (_ bv0 256))
(define-fun x377 ((x161 (_ BitVec 256))) (_ BitVec 256) (_ bv0 256))
(define-fun x338 ((x161 (_ BitVec 256))) (_ BitVec 256) (_ bv0 256))
(define-fun x236 ((x161 (_ BitVec 256))) (_ BitVec 256) (_ bv0 256))
(define-fun x126 ((x161 (_ BitVec 256))) (_ BitVec 256) (_ bv0 256))
(define-fun x174 ((x161 (_ BitVec 256))) (_ BitVec 256) (ite (= x161 x85) x239 (x1 x161)))
(define-fun x411 ((x161 (_ BitVec 256))) (_ BitVec 256) (ite (= x161 x238) x408 (x174 x161)))
(define-fun x311 ((x161 (_ BitVec 256))) (_ BitVec 256) (ite (= x161 (_ bv512 256)) (_ bv50942633119752846454219349998365661925608737367104304655302372697894809501696 256) (x304 x161)))
(define-fun x358 ((x161 (_ BitVec 256))) (_ BitVec 256) (ite (= x161 (_ bv516 256)) x238 (x311 x161)))
(define-fun x255 ((x161 (_ BitVec 256))) (_ BitVec 256) (ite (= x161 (_ bv0 256)) x170 (x262 x161)))
(define-fun x143 ((x161 (_ BitVec 256))) (_ BitVec 256) (ite (= (_ bv512 256) x161) x170 (x358 x161)))
(define-fun x235 ((x161 (_ BitVec 256))) (_ BitVec 256) (ite (= x161 (_ bv512 256)) (_ bv9926590759366731133184464140911154174177107315504433282334229972011911741440 256) (x143 x161)))
(define-fun x210 ((x161 (_ BitVec 256))) (_ BitVec 256) (ite (= (_ bv516 256) x161) x83 (x235 x161)))
(define-fun x362 ((x161 (_ BitVec 256))) (_ BitVec 256) (ite (= x161 (_ bv548 256)) x204 (x210 x161)))
(define-fun x30 ((x161 (_ BitVec 256))) (_ BitVec 256) (ite (= x161 (_ bv580 256)) x32 (x362 x161)))
(define-fun x109 ((x161 (_ BitVec 256))) (_ BitVec 256) (ite (and (bvult x161 (_ bv544 256)) (bvuge x161 (_ bv512 256))) (x406 (bvadd x161 (bvneg (_ bv512 256)))) (x30 x161)))
(define-fun x309 ((x161 (_ BitVec 256))) (_ BitVec 256) (ite x173 (x109 x161) (x30 x161)))
(define-fun x21 ((x161 (_ BitVec 256))) (_ BitVec 256) (ite (= (_ bv768 256) x161) x94 (x309 x161)))
(define-fun x4 ((x161 (_ BitVec 256))) (_ BitVec 256) (ite (= x161 (_ bv800 256)) x159 (x21 x161)))
(define-fun x253 ((x161 (_ BitVec 256))) (_ BitVec 256) (ite (= (_ bv832 256) x161) x259 (x4 x161)))
(define-fun x305 ((x161 (_ BitVec 256))) (_ BitVec 256) (ite (= x161 (_ bv864 256)) x83 (x253 x161)))
(define-fun x145 ((x161 (_ BitVec 256))) (_ BitVec 256) (ite (= x161 (_ bv896 256)) x137 (x305 x161)))
(define-fun x365 ((x161 (_ BitVec 256))) (_ BitVec 256) (ite (= (_ bv928 256) x161) x151 (x145 x161)))
(define-fun x61 ((x161 (_ BitVec 256))) (_ BitVec 256) (ite x184 (x304 x161) (x365 x161)))
(define-fun x277 ((x161 (_ BitVec 256))) (_ BitVec 256) (ite (= x161 x2) (_ bv50942633119752846454219349998365661925608737367104304655302372697894809501696 256) (x61 x161)))
(define-fun x348 ((x161 (_ BitVec 256))) (_ BitVec 256) (ite (= x313 x161) x238 (x277 x161)))
(define-fun x240 ((x161 (_ BitVec 256))) (_ BitVec 256) (ite (= x161 (_ bv0 256)) x371 (x40 x161)))
(define-fun x149 ((x161 (_ BitVec 256))) (_ BitVec 256) (ite (= x161 x2) x371 (x348 x161)))
(define-fun x386 ((x161 (_ BitVec 256))) (_ BitVec 256) (ite (= x161 x62) (_ bv79296723274733526634128096404112061805888054070845613866591879340676341563392 256) (x149 x161)))
(define-fun x197 ((x161 (_ BitVec 256))) (_ BitVec 256) (ite (= x81 x161) x238 (x386 x161)))
(define-fun x363 ((x161 (_ BitVec 256))) (_ BitVec 256) (ite (= x116 x161) x147 (x197 x161)))
(define-fun x82 ((x161 (_ BitVec 256))) (_ BitVec 256) (ite (= x161 x359) x10 (x363 x161)))
(define-fun x152 ((x161 (_ BitVec 256))) (_ BitVec 256) (ite (and (bvult x161 x62) (bvule x62 x161)) (x98 (bvadd x161 (bvneg x62))) (x82 x161)))
(define-fun x399 ((x161 (_ BitVec 256))) (_ BitVec 256) (ite (= x233 x161) x307 (x152 x161)))
(define-fun x90 ((x161 (_ BitVec 256))) (_ BitVec 256) (ite x36 (x152 x161) (x399 x161)))
(define-fun x106 ((x161 (_ BitVec 256))) (_ BitVec 256) (ite (= x112 x161) x10 (x90 x161)))
(define-fun x123 ((x161 (_ BitVec 256))) (_ BitVec 256) (ite (= x161 x112) (_ bv91893037931264823478789666111544828899574148870504437229209701178949438013440 256) (x106 x161)))
(define-fun x334 ((x161 (_ BitVec 256))) (_ BitVec 256) (ite (= x150 x161) x238 (x123 x161)))
(define-fun x287 ((x161 (_ BitVec 256))) (_ BitVec 256) (ite (= x331 x161) x280 (x334 x161)))
(define-fun x344 ((x161 (_ BitVec 256))) (_ BitVec 256) (ite (= x161 x84) x6 (x287 x161)))
(define-fun x65 ((x161 (_ BitVec 256))) (_ BitVec 256) (ite (= x245 x161) x97 (x344 x161)))
(define-fun x228 ((x161 (_ BitVec 256))) (_ BitVec 256) (ite (and (bvule x112 x161) (bvugt (bvadd (_ bv32 256) x112) x161)) (x254 (bvadd x161 (bvneg x112))) (x65 x161)))
(define-fun x138 ((x161 (_ BitVec 256))) (_ BitVec 256) (ite (= x325 x161) x209 (x328 x161)))
(define-fun x350 ((x161 (_ BitVec 256))) (_ BitVec 256) (ite (= x161 x89) x6 (x138 x161)))
(define-fun x53 ((x161 (_ BitVec 256))) (_ BitVec 256) (ite (= x112 x161) x192 (x5 x161)))
(define-fun x351 ((x161 (_ BitVec 256))) (_ BitVec 256) (ite (= x161 x354) x181 (x350 x161)))
(define-fun x176 ((x256 (_ BitVec 256))) Bool (or (not (and (bvuge (_ bv115792089237316195423570985008687907853269984665640564039457584007913129639935 256) x256) (bvuge x256 (_ bv0 256)))) (not (and (bvult x256 x26) (bvuge x256 (_ bv0 256)))) (= (x392 (x74 x256)) (bvadd x256 (_ bv1 256)))))
(define-fun x378 ((x172 (_ BitVec 256))) Bool (or (and (and (bvule (_ bv1 256) (x392 x172)) (= x172 (x74 (bvadd (bvneg (_ bv1 256)) (x392 x172))))) (bvule (x392 x172) x26)) (= (x392 x172) (_ bv0 256)) (not (and (bvuge (_ bv115792089237316195423570985008687907853269984665640564039457584007913129639935 256) x172) (bvuge x172 (_ bv0 256))))))
(define-fun x410 ((x219 (_ BitVec 256)) (x268 (_ BitVec 256))) Bool (or (not (and (bvuge x219 (_ bv0 256)) (bvule x219 (_ bv1461501637330902918203684832716283019655932542975 256)))) (or (not (and (bvule x268 (_ bv115792089237316195423570985008687907853269984665640564039457584007913129639935 256)) (bvuge x268 (_ bv0 256)))) (not (and (bvuge x268 (_ bv0 256)) (bvult x268 (x193 x219)))) (= (bvadd (_ bv1 256) x268) (x186 x219 (x166 x219 x268))))))
(define-fun x185 ((x393 (_ BitVec 256)) (x394 (_ BitVec 256))) Bool (or (not (and (bvule (_ bv0 256) x393) (bvule x393 (_ bv1461501637330902918203684832716283019655932542975 256)))) (or (not (and (bvuge (_ bv115792089237316195423570985008687907853269984665640564039457584007913129639935 256) x394) (bvule (_ bv0 256) x394))) (= (_ bv0 256) (x186 x393 x394)) (and (and (= (x166 x393 (bvadd (x186 x393 x394) (bvneg (_ bv1 256)))) x394) (bvule (_ bv1 256) (x186 x393 x394))) (bvuge (x193 x393) (x186 x393 x394))))))
(define-fun x405 ((x107 (_ BitVec 256)) (x364 (_ BitVec 256))) Bool (or (or (not (and (bvule (_ bv0 256) x364) (bvuge (_ bv115792089237316195423570985008687907853269984665640564039457584007913129639935 256) x364))) (not (and (bvult x364 (x217 x107)) (bvuge x364 (_ bv0 256)))) (= (bvadd (_ bv1 256) x364) (x299 x107 (x105 x107 x364)))) (not (and (bvuge x107 (_ bv0 256)) (bvuge (_ bv1461501637330902918203684832716283019655932542975 256) x107)))))
(define-fun x92 ((x398 (_ BitVec 256)) (x29 (_ BitVec 256))) Bool (or (not (and (bvuge (_ bv1461501637330902918203684832716283019655932542975 256) x398) (bvuge x398 (_ bv0 256)))) (or (= (x299 x398 x29) (_ bv0 256)) (and (and (= x29 (x105 x398 (bvadd (bvneg (_ bv1 256)) (x299 x398 x29)))) (bvuge (x299 x398 x29) (_ bv1 256))) (bvuge (x217 x398) (x299 x398 x29))) (not (and (bvuge x29 (_ bv0 256)) (bvuge (_ bv115792089237316195423570985008687907853269984665640564039457584007913129639935 256) x29))))))
(define-fun x368 ((x246 (_ BitVec 256)) (x352 (_ BitVec 256))) Bool (or (not (and (bvuge (_ bv1461501637330902918203684832716283019655932542975 256) x246) (bvule (_ bv0 256) x246))) (or (not (or (not (= (x186 x246 x352) (_ bv0 256))) (not (= (_ bv0 256) (x299 x246 x352))))) (not (= (x392 x352) (_ bv0 256))) (not (and (bvule (_ bv0 256) x352) (bvule x352 (_ bv115792089237316195423570985008687907853269984665640564039457584007913129639935 256)))))))
(define-fun x308 ((x293 (_ BitVec 256))) Bool (or (bvult (x193 x293) (_ bv340282366920938463463374607431768211455 256)) (not (and (bvule x293 (_ bv1461501637330902918203684832716283019655932542975 256)) (bvuge x293 (_ bv0 256))))))
(define-fun x278 ((x41 (_ BitVec 256))) Bool (or (not (and (bvuge (_ bv1461501637330902918203684832716283019655932542975 256) x41) (bvule (_ bv0 256) x41))) (bvugt (_ bv340282366920938463463374607431768211455 256) (x217 x41))))
(define-fun x111 () Bool true)
(define-fun x104 () Bool x111)
(define-fun x146 () Bool true)
(define-fun x187 () Bool x146)
(define-fun x407 () Bool true)
(define-fun x224 () Bool x407)
(define-fun x144 () Bool true)
(define-fun x274 () Bool x144)
(define-fun x345 () Bool true)
(define-fun x182 () Bool x345)
(define-fun x283 () Bool true)
(define-fun x73 () Bool x283)
(define-fun x263 () Bool true)
(define-fun x316 () Bool true)
(define-fun x133 () Bool (and x316 x263))
(define-fun x31 () Bool true)
(define-fun x337 () Bool x31)
(define-fun x372 () Bool true)
(define-fun x160 () Bool x372)
(assert (not (x175 (x196 (_ bv64 256) x97 x387))))
(assert (= (x71 (x196 (_ bv64 256) x238 (_ bv103 256))) (x196 (_ bv64 256) x238 (_ bv103 256))))
(assert x160)
(assert (x175 (_ bv1000000000000000 256)))
(assert (= (x71 (_ bv1000000000000000 256)) (_ bv0 256)))
(assert (=> (bvule x43 (_ bv10000 256)) (= (x71 x43) (_ bv0 256))))
(assert (= (and x231 (not x208)) x310))
(assert (=> (bvule x130 (_ bv10000 256)) (= (_ bv0 256) (x71 x130))))
(assert (= (=> (and (or (and (and (= (bvmul x159 x284) x11) (= x232 x11) (x341 x284 x159)) (not x395)) (and x395 (= (_ bv0 256) x232))) (and (= x59 (_ bv1000000000000000000 256)) (= x57 (_ bv576 256)) (= (bvadd x204 x159) x137) (not (bvugt x159 (bvadd x159 x204))) (= x159 (bvudiv x247 (_ bv1000000000000000000 256))) (= (= (_ bv0 256) x284) x395))) x357) x251))
(assert (x175 (_ bv39341301877480157781710804024396230103289065588583741745104145964028735258624 256)))
(assert (= (or x310 x56) x227))
(assert (not (x175 (x196 (_ bv64 256) x147 (_ bv103 256)))))
(assert (= (=> (and (and x374 (= x374 x73) (bvuge x9 (_ bv1 256)) (= x272 (bvult (_ bv0 256) (x376 x121))) (= (bvugt (x376 x243) (_ bv0 256)) x286) (= x10 x270) (bvuge (_ bv1461501637330902918203684832716283019655932542975 256) x295) (= x211 (_ bv0 256)) (bvule (_ bv0 256) x370) (bvule (_ bv0 256) x167) (bvuge (_ bv1461501637330902918203684832716283019655932542975 256) x317) (bvuge (_ bv115792089237316195423570985008687907853269984665640564039457584007913129639935 256) x285) (bvuge x110 (_ bv0 256)) (not (= x121 x323)) (not (= x243 x121)) (bvule x120 (_ bv115792089237316195423570985008687907853269984665640564039457584007913129639935 256)) x131 (not (= x243 x323)) (not (= x347 x323)) (not (= x121 x317)) (bvuge (_ bv1461501637330902918203684832716283019655932542975 256) x153) (not (= x317 x347)) (bvule x229 (_ bv1461501637330902918203684832716283019655932542975 256)) (bvule (_ bv0 256) x212) (bvuge (_ bv1461501637330902918203684832716283019655932542975 256) x321) (= x224 x397) (bvule x9 (_ bv1461501637330902918203684832716283019655932542975 256)) (not (= x238 x177)) x226 (bvule x370 (_ bv1461501637330902918203684832716283019655932542975 256)) (bvule (_ bv1 256) x153) (not (= x347 x43)) (not (= x243 x43)) x7 (bvuge x121 (_ bv1 256)) (not (= x243 x238)) (= x122 x182) (not (= x153 x323)) (bvule (_ bv0 256) x139) (bvule (_ bv1 256) x323) (bvule x177 (_ bv1461501637330902918203684832716283019655932542975 256)) (bvule x212 (_ bv4294967295 256)) (bvuge (_ bv1461501637330902918203684832716283019655932542975 256) x121) x286 (not (= x43 x317)) (not (= x43 x121)) x409 (= x104 x409) (bvuge x230 (_ bv1 256)) (bvuge x317 (_ bv1 256)) (not (= x238 x43)) (not (= x323 x238)) (bvuge x401 (_ bv0 256)) (bvule x139 (_ bv115792089237316195423570985008687907853269984665640564039457584007913129639935 256)) (bvuge (_ bv115792089237316195423570985008687907853269984665640564039457584007913129639935 256) x110) x164 (bvule (_ bv1 256) x238) x272 (not (= x317 x238)) (bvuge x321 (_ bv1 256)) (bvule (_ bv1 256) x47) (not (= x323 x43)) (bvuge (_ bv57896044618658097711785492504343953926634992332820282019728792003956564819967 256) x222) x13 x119 x397 x69 (= x9 x121) (= x69 (bvugt (x376 x238) (_ bv0 256))) (bvuge (_ bv1461501637330902918203684832716283019655932542975 256) x230) x383 (not (= x347 x153)) (bvule (_ bv1 256) x229) (bvule (_ bv1 256) x347) (not (= x153 x238)) (not (= x177 x153)) (bvule x267 (_ bv1461501637330902918203684832716283019655932542975 256)) (= x43 x321) (= x215 x207) (not (= x317 x323)) (bvuge x222 (_ bv68 256)) (= (bvugt (x376 x323) (_ bv0 256)) x113) (= x187 x119) x113 (= x164 (bvult (_ bv0 256) (x376 x177))) (not (= x121 x153)) (bvule x43 (_ bv1461501637330902918203684832716283019655932542975 256)) (bvuge (_ bv1461501637330902918203684832716283019655932542975 256) x323) (not (= x243 x153)) (not (= x323 x177)) (not (= x177 x347)) (bvule x167 (_ bv1461501637330902918203684832716283019655932542975 256)) (= x229 x43) (not (= x177 x243)) (bvuge x243 (_ bv1 256)) (not (= x347 x121)) (= x274 x7) (bvule (_ bv1 256) x10) (not (= x243 x317)) (= (bvugt (x376 x153) (_ bv0 256)) x131) (not (= x317 x177)) (= x383 x133) (not (= x317 x153)) x201 (not (= x177 x43)) (bvule x347 (_ bv1461501637330902918203684832716283019655932542975 256)) (= x215 (x49 (_ bv4 256))) (bvule (_ bv0 256) x285) (bvule x238 (_ bv1461501637330902918203684832716283019655932542975 256)) (not (= x177 x121)) (bvuge x43 (_ bv1 256)) (bvuge x295 (_ bv0 256)) (= x10 (x49 (_ bv36 256))) (bvuge (_ bv115792089237316195423570985008687907853269984665640564039457584007913129639935 256) x401) (= (bvugt (x376 x317) (_ bv0 256)) x201) x122 (= (bvugt (x376 x347) (_ bv0 256)) x226) (bvuge (_ bv1461501637330902918203684832716283019655932542975 256) x243) (bvuge x177 (_ bv1 256)) (not (= x121 x238)) (not (= x347 x243)) (= x230 x347) (not (= x347 x238)) (not (= x153 x43)) (= x243 x47) (bvuge x78 (_ bv0 256)) (= (bvugt (x376 x43) (_ bv0 256)) x13) (bvule (_ bv0 256) x120) (bvuge (_ bv1461501637330902918203684832716283019655932542975 256) x47) (bvuge (_ bv115792089237316195423570985008687907853269984665640564039457584007913129639935 256) x78) (bvule (_ bv0 256) x267)) (and (= x370 x97) (and (and (= x370 x85) (= x147 (bvand x215 (_ bv1461501637330902918203684832716283019655932542975 256))) (bvuge (_ bv1461501637330902918203684832716283019655932542975 256) x147) (bvule (_ bv1 256) x20) (= (x376 x238) x20) (= x17 x408) (= x195 x270) (= (x1 x85) x239) (= x380 (= x388 x94)) (bvuge x147 (_ bv1 256)) (= x17 (x174 x238)) (= x239 x269) (= x361 (_ bv513435984 256)) (not (= x403 (_ bv2 256)))) (= x120 x94)))) (and (=> (and x380 (and (= x373 x204) (= x2 (_ bv128 256)) (= x32 x22) (= x296 x388))) x319) (=> (and (and (and (= x83 (x143 (_ bv512 256))) (= x27 (x376 x199)) (= x170 (x333 x353)) (bvuge x252 (_ bv1 256)) (bvuge x38 (_ bv32 256)) (= (_ bv50942633119752846454219349998365661925608737367104304655302372697894809501696 256) x342) (= x72 x238) (= (bvult (_ bv0 256) x188) x169) (= x88 x72) (bvuge x100 (_ bv1 256)) (bvule x199 (_ bv1461501637330902918203684832716283019655932542975 256)) (= x353 (x196 (_ bv64 256) x238 (_ bv103 256))) (= x238 x280) (= x194 (_ bv1889567281 256)) (bvule (_ bv1 256) x280) (= x16 (_ bv512 256)) (= x100 (x376 x280)) (= (_ bv512 256) x180) (= x252 (x376 x238)) (= (_ bv36 256) x141) (bvule x280 (_ bv1461501637330902918203684832716283019655932542975 256)) (bvule (_ bv1 256) x27)) (or (and (and (= (_ bv1 256) x178) (bvuge x38 (_ bv32 256)) (bvule x38 (_ bv4294967295 256))) x169) (and (= x188 x178) (not x169)))) (not x380)) x375))) x290))
(assert (= (x71 (x196 (_ bv64 256) x97 x387)) (x196 (_ bv64 256) x97 x387)))
(assert (= (x196 (_ bv64 256) x147 (_ bv103 256)) (x71 (x196 (_ bv64 256) x147 (_ bv103 256)))))
(assert (= (and x169 x265) x173))
(assert (= (and (not x3) x227) x25))
(assert (= (and x95 x395) x46))
(assert (= x369 (and x66 (not x218))))
(assert (x175 (_ bv1889567281 256)))
(assert (= (x71 (_ bv115792089237316195423570985008687907853269984665640564039457584007913129639935 256)) (_ bv0 256)))
(assert (= x375 (=> (and (or (and x306 (= (_ bv0 256) x136)) (and (not x306) (and (= (bvmul x381 x115) x261) (= x136 x261) (x341 x381 x115)))) (and (= x306 (= (_ bv0 256) x381)) (bvuge x178 (_ bv1 256)) (= (_ bv512 256) x135) (bvule x381 (_ bv1000000000000000 256)) (not (bvugt x388 x94)) (= (x309 (_ bv512 256)) x381) (= (bvadd (bvneg x388) x94) x115))) x355)))
(assert (x175 (_ bv4294967295 256)))
(assert (bvult x26 (_ bv340282366920938463463374607431768211455 256)))
(assert (=> (bvule x97 (_ bv10000 256)) (= (x71 x97) (_ bv0 256))))
(assert (= (x71 (_ bv26959946667150639794667015087019630673637144422540572481103610249215 256)) (_ bv0 256)))
(assert (= (_ bv64 256) (x114 (x196 (_ bv64 256) x238 (_ bv103 256)))))
(assert (= (_ bv0 256) (x71 (_ bv39341301877480157781710804024396230103289065588583741745104145964028735258624 256))))
(assert (=> (bvuge (_ bv10000 256) x85) (= (x71 x85) (_ bv0 256))))
(assert (not x290))
(assert (= (_ bv0 256) (x71 (_ bv79296723274733526634128096404112061805888054070845613866591879340676341563392 256))))
(assert (= (x71 (_ bv91893037931264823478789666111544828899574148870504437229209701178949438013440 256)) (_ bv0 256)))
(assert x337)
(assert (x175 (_ bv57896044618658097711785492504343953926634992332820282019728792003956564819967 256)))
(assert (= (x77 (x196 (_ bv64 256) x147 (_ bv103 256))) (_ bv103 256)))
(assert (not (x175 (x196 (_ bv64 256) x147 (_ bv104 256)))))
(assert (x175 (_ bv1000000000000000000 256)))
(assert (= (_ bv104 256) (x77 (x196 (_ bv64 256) x147 (_ bv104 256)))))
(assert (=> (bvule x177 (_ bv10000 256)) (= (x71 x177) (_ bv0 256))))
(assert (= x97 (x19 (x196 (_ bv64 256) x97 x387))))
(assert (=> (bvule x323 (_ bv10000 256)) (= (_ bv0 256) (x71 x323))))
(assert (= (_ bv0 256) (x71 (_ bv9926590759366731133184464140911154174177107315504433282334229972011911741440 256))))
(assert (=> (bvule x147 (_ bv10000 256)) (= (_ bv0 256) (x71 x147))))
(assert (bvult (_ bv10000 256) (x196 (_ bv64 256) x97 x387)))
(assert (= (x19 (x196 (_ bv64 256) x147 (_ bv104 256))) x147))
(assert (= (x71 (x196 (_ bv64 256) x147 (_ bv104 256))) (x196 (_ bv64 256) x147 (_ bv104 256))))
(assert (bvult (_ bv10000 256) (x196 (_ bv64 256) x147 (_ bv103 256))))
(assert (x175 (_ bv115792089237316195423570985008687907853269984665640564039457584007913129639935 256)))
(assert (x175 (_ bv26959946667150639794667015087019630673637144422540572481103610249215 256)))
(assert (= x35 (=> (and (= (bvadd x112 (_ bv36 256)) x325) (= (x350 x354) x200) (= (bvadd (_ bv32 256) x325) x89) (bvuge x44 (_ bv1 256)) (= x331 (bvadd x150 (_ bv32 256))) (= (bvadd x112 (_ bv4 256)) x150) (bvule (_ bv32 256) x282) (= (x376 x130) x44) (= (bvadd (_ bv32 256) x84) x245) (= (bvadd (bvneg x10) x87) x320) (= x209 (bvand (_ bv1461501637330902918203684832716283019655932542975 256) x324)) (= x292 (bvand (_ bv26959946667150639794667015087019630673637144422540572481103610249215 256) x200)) (= (= x96 (x402 x130)) x55) (= (x53 x112) x382) (= (bvadd x89 (_ bv32 256)) x213) (= x18 (x196 (_ bv64 256) x147 (_ bv103 256))) (bvuge x300 (_ bv1 256)) (= (bvadd x248 (bvneg (_ bv32 256))) x192) (= x336 (x12 x238)) (= (x333 x18) x300) (= x117 (bvadd x300 (bvneg x10))) (not (bvugt x10 x87)) (not (bvugt x10 x300)) (= (bvult (bvadd x382 (bvneg (_ bv128 256))) (_ bv32 256)) x315) (= (bvadd (_ bv32 256) x112) x354) (bvule (_ bv1 256) x400) (= x112 (bvadd x312 (_ bv64 256))) (= (bvadd x213 (bvneg x112)) x248) (= (_ bv0 256) x241) (= x400 (x376 x280)) (= (bvadd x292 (bvneg (_ bv39341301877480157781710804024396230103289065588583741745104145964028735258624 256))) x181) x168 (= true x339) (= (bvadd x124 (_ bv64 256)) x312) (= x168 (bvule x336 (x402 x238))) x55 (= x324 (x228 x112)) (bvule (_ bv128 256) x382) (bvule x282 (_ bv4294967295 256)) (bvuge x288 (_ bv1 256)) (= (x12 x130) x96) (= (bvadd x331 (_ bv32 256)) x84) (bvuge (_ bv1461501637330902918203684832716283019655932542975 256) x280)) x315)))
(assert (= (_ bv0 256) (x71 (_ bv1461501637330902918203684832716283019655932542975 256))))
(assert (= (x19 (x196 (_ bv64 256) x147 (_ bv103 256))) x147))
(assert (=> (bvuge (_ bv10000 256) x280) (= (_ bv0 256) (x71 x280))))
(assert (= (x71 (_ bv4294967295 256)) (_ bv0 256)))
(assert (=> (bvule x238 (_ bv10000 256)) (= (x71 x238) (_ bv0 256))))
(assert (= x387 (x77 (x196 (_ bv64 256) x97 x387))))
(assert (bvult (_ bv10000 256) (x196 (_ bv64 256) x238 (_ bv103 256))))
(assert (= x238 (x19 (x196 (_ bv64 256) x238 (_ bv103 256)))))
(assert (x175 (_ bv9926590759366731133184464140911154174177107315504433282334229972011911741440 256)))
(assert (= (x71 (_ bv340282366920938463463374607431768211455 256)) (_ bv0 256)))
(assert (= x66 (or x356 x39)))
(assert (= (x71 (_ bv513435984 256)) (_ bv0 256)))
(assert (= x36 (and x3 x227)))
(assert (x175 (_ bv50942633119752846454219349998365661925608737367104304655302372697894809501696 256)))
(assert (= x190 (and (not x169) x265)))
(assert (= x275 (and x216 (not x125))))
(assert (=> (bvule x317 (_ bv10000 256)) (= (_ bv0 256) (x71 x317))))
(assert (= (x114 (x196 (_ bv64 256) x147 (_ bv103 256))) (_ bv64 256)))
(assert (= (_ bv0 256) (x71 (_ bv1889567281 256))))
(assert (= (and (not x380) x289) x265))
(assert (= (x77 (x196 (_ bv64 256) x238 (_ bv103 256))) (_ bv103 256)))
(assert (= (or x25 x36) x205))
(assert (x175 (_ bv1461501637330902918203684832716283019655932542975 256)))
(assert (= x56 (and x231 x208)))
(assert (bvugt (_ bv340282366920938463463374607431768211455 256) x276))
(assert (=> (bvuge (_ bv10000 256) x243) (= (x71 x243) (_ bv0 256))))
(assert (not (x175 (x196 (_ bv64 256) x238 (_ bv103 256)))))
(assert (= (=> (and (and (= x171 (_ bv1000000000000000000 256)) (= (= x136 (_ bv0 256)) x218)) (or (and x218 (= x247 (_ bv0 256))) (and (not x218) (and (= x346 x247) (x341 x136 x204) (= x346 (bvmul x136 x204)))))) x251) x355))
(assert (= (and x380 x289) x184))
(assert (x175 (_ bv340282366920938463463374607431768211455 256)))
(assert (=> (bvule x153 (_ bv10000 256)) (= (_ bv0 256) (x71 x153))))
(assert (= (and x216 x125) x221))
(assert (= (=> (and (= x33 x373) (= x33 (bvadd x159 x204)) (= x128 (bvadd x32 x396)) (= (_ bv768 256) x2) (= x157 (_ bv704 256)) (= x22 x128) (= (bvadd x340 x327) x259) (= x296 x120) (not (bvugt x327 (bvadd x327 x340))) (= x327 (bvudiv x225 (_ bv1000000000000000000 256)))) x319) x183))
(assert (= true x289))
(assert (= (x71 (_ bv1000000000000000000 256)) (_ bv0 256)))
(assert (=> (bvuge (_ bv10000 256) x347) (= (x71 x347) (_ bv0 256))))
(assert (= x39 (and x385 (not x306))))
(assert (x175 (_ bv79296723274733526634128096404112061805888054070845613866591879340676341563392 256)))
(assert (= (or x50 x46) x216))
(assert (= (and (not x395) x95) x50))
(assert (=> (bvule x121 (_ bv10000 256)) (= (_ bv0 256) (x71 x121))))
(assert (= x357 (=> (and (and (= (_ bv1000000000000000000 256) x384) (= (bvadd x396 x32) x151) (= x125 (= x136 (_ bv0 256))) (= x396 (bvudiv x232 (_ bv1000000000000000000 256))) (= x326 (_ bv640 256)) (not (bvugt x396 (bvadd x396 x32)))) (or (and (= (_ bv0 256) x225) x125) (and (and (= x102 (bvmul x136 x340)) (= x225 x102) (x341 x136 x340)) (not x125)))) x183)))
(assert (= x214 (=> (and (and (bvule x63 (_ bv4294967295 256)) (= x81 (bvadd x62 (_ bv4 256))) (bvuge (_ bv1461501637330902918203684832716283019655932542975 256) x130) (= x6 (bvudiv x23 (_ bv1000000000000000000 256))) (= x158 (_ bv1000000000000000000 256)) (bvuge x281 (_ bv1 256)) (x341 x10 x264) (= (x411 x130) x322) (= (x411 x238) x14) (bvule (_ bv1 256) x412) x329 x134 (= x62 (bvadd x52 (_ bv64 256))) (= (bvadd x42 (_ bv64 256)) x52) (= x281 (x376 x130)) (= (= x322 (x12 x130)) x329) (= (bvadd (_ bv32 256) x81) x116) (= (= x147 x97) x3) (= (bvudiv x302 x87) x264) (= (bvadd (_ bv32 256) x116) x359) (= (bvmul x264 x10) x23) (= x134 (bvuge (x12 x238) x14))) (or (and (and (not (bvugt x10 x129)) (= (x48 x271) x129) (= (x196 (_ bv64 256) x97 x387) x271) (= x387 (x196 (_ bv64 256) x147 (_ bv104 256))) (bvuge (_ bv1461501637330902918203684832716283019655932542975 256) x97) (bvule (_ bv1 256) x97) (= x124 x233) (= x233 (bvadd (_ bv64 256) x62)) (= (bvadd x129 (bvneg x10)) x307) (bvule (_ bv1 256) x129)) (not x3)) (and (= x62 x124) x3))) x35)))
(assert (= x58 (and x66 x218)))
(assert (= (_ bv64 256) (x114 (x196 (_ bv64 256) x147 (_ bv104 256)))))
(assert (x175 (_ bv91893037931264823478789666111544828899574148870504437229209701178949438013440 256)))
(assert (= x231 (or x184 x220)))
(assert (= (=> (and (or (and x208 (= (_ bv0 256) x302)) (and (not x208) (and (x341 x330 (_ bv1000000000000000000 256)) (= x191 (bvmul (_ bv1000000000000000000 256) x330)) (= x191 x302)))) (and (= x54 (x376 x280)) (not (bvult x80 x22)) (bvule (_ bv1 256) x280) (= (= (_ bv0 256) x330) x208) (= x198 (_ bv50942633119752846454219349998365661925608737367104304655302372697894809501696 256)) (= x330 (bvadd (bvneg x22) x80)) (bvule (_ bv1 256) x165) (= (_ bv1889567281 256) x343) (= x313 (bvadd (_ bv4 256) x2)) (= (_ bv36 256) x298) (bvuge x54 (_ bv1 256)) (bvule x280 (_ bv1461501637330902918203684832716283019655932542975 256)) (= x203 (x196 (_ bv64 256) x238 (_ bv103 256))) (= x238 x280) (= x156 x79) (not (bvult (bvadd x373 x291) x291)) (= x291 (x149 x2)) (= x165 (x376 x238)) (= x360 (_ bv36 256)) (= x80 (bvadd x373 x291)) (= (x333 x203) x371) (= (bvadd (bvneg x2) x118) x360) (= (bvadd (_ bv32 256) x313) x118) (bvule (_ bv1 256) x87) (= x238 x79) (= x335 (_ bv1000000000000000000 256)) (= (bvadd (_ bv64 256) x2) x42) (= x296 x94))) x214) x319))
(assert (= (_ bv0 256) (x71 (_ bv50942633119752846454219349998365661925608737367104304655302372697894809501696 256))))
(assert (=> (bvule x199 (_ bv10000 256)) (= (x71 x199) (_ bv0 256))))
(assert (x175 (_ bv513435984 256)))
(assert (= (x71 (_ bv57896044618658097711785492504343953926634992332820282019728792003956564819967 256)) (_ bv0 256)))
(assert (= (or x173 x190) x385))
(assert (bvugt (x196 (_ bv64 256) x147 (_ bv104 256)) (_ bv10000 256)))
(assert (= x220 (or x221 x275)))
(assert (= x95 (or x369 x58)))
(assert (= (_ bv64 256) (x114 (x196 (_ bv64 256) x97 x387))))
(assert (= x356 (and x385 x306)))
(check-sat)
(exit)
